SDVRP instances/custom_instances/p04_15_split0.vrp
NAME:p04_15_split
BEST_KNOWN: 0
COMMENT: 0
DIMENSION: 708
CAPACITY: 200
EDGE_WEIGHT_FORMAT: FUNCTION
EDGE_WEIGHT_TYPE: EXACT_2D
NODE_COORD_SECTION
1 0.00000 0.00000
2 4 49
3 4 49
4 4 49
5 4 49
6 -32 -48
7 -32 -48
8 -32 -48
9 -32 -48
10 -32 -48
11 -1 17
12 -1 17
13 -5 -30
14 -5 -30
15 -5 -30
16 -5 -30
17 -5 -30
18 -5 -30
19 -5 -30
20 43 36
21 43 36
22 43 36
23 43 36
24 43 36
25 12 -48
26 12 -48
27 12 -48
28 12 -48
29 46 -31
30 46 -31
31 -39 45
32 -39 45
33 -39 45
34 -39 45
35 -39 45
36 26 34
37 26 34
38 26 34
39 26 34
40 38 -40
41 38 -40
42 38 -40
43 38 -40
44 38 -40
45 38 -40
46 11 11
47 11 11
48 11 11
49 11 11
50 11 11
51 19 44
52 19 44
53 11 19
54 11 19
55 11 19
56 11 19
57 11 19
58 11 19
59 -27 -45
60 -27 -45
61 -27 -45
62 -27 -45
63 -2 28
64 -2 28
65 -2 28
66 -24 -36
67 -24 -36
68 -24 -36
69 -24 -36
70 29 -9
71 29 -9
72 29 -9
73 29 -9
74 50 31
75 50 31
76 50 31
77 50 31
78 50 31
79 50 31
80 -44 38
81 -44 38
82 -44 38
83 -44 38
84 -44 38
85 -44 38
86 -27 -31
87 -27 -31
88 -27 -31
89 -27 -31
90 -27 -31
91 6 45
92 6 45
93 6 45
94 6 45
95 6 45
96 6 45
97 15 -30
98 15 -30
99 26 45
100 26 45
101 26 45
102 26 45
103 26 45
104 26 45
105 26 45
106 26 45
107 34 50
108 34 50
109 34 50
110 34 50
111 -22 1
112 -22 1
113 -22 1
114 -22 1
115 29 -42
116 29 -42
117 29 -42
118 29 -42
119 29 -42
120 29 -42
121 8 0
122 8 0
123 8 0
124 8 0
125 8 0
126 8 0
127 8 0
128 -17 46
129 -17 46
130 -17 46
131 -17 46
132 -27 50
133 -27 50
134 -27 50
135 -27 50
136 -27 50
137 -27 50
138 23 13
139 23 13
140 23 13
141 25 49
142 25 49
143 25 49
144 25 49
145 4 9
146 4 9
147 4 9
148 4 9
149 4 9
150 -50 -30
151 -50 -30
152 -1 -1
153 -1 -1
154 -1 -1
155 -7 12
156 -7 12
157 -7 12
158 -7 12
159 -7 12
160 -7 12
161 -7 12
162 -28 10
163 -28 10
164 -28 10
165 45 43
166 45 43
167 45 43
168 45 43
169 45 43
170 45 43
171 45 43
172 45 43
173 24 10
174 24 10
175 24 10
176 24 10
177 24 10
178 37 -28
179 37 -28
180 37 -28
181 37 -28
182 37 -28
183 37 -28
184 37 -28
185 6 -7
186 6 -7
187 6 -7
188 6 -7
189 -7 32
190 -7 32
191 -7 32
192 3 -28
193 3 -28
194 3 -28
195 3 -28
196 3 -28
197 -28 14
198 -28 14
199 -28 14
200 16 11
201 16 11
202 16 11
203 -2 16
204 -2 16
205 -2 16
206 -2 16
207 -2 16
208 -2 16
209 8 4
210 8 4
211 8 4
212 8 4
213 24 27
214 24 27
215 24 27
216 24 27
217 24 27
218 24 27
219 48 40
220 48 40
221 48 40
222 48 40
223 48 40
224 48 40
225 -33 -25
226 -33 -25
227 -33 -25
228 -33 -25
229 -33 -25
230 -33 -25
231 -33 -25
232 -16 -31
233 -14 43
234 -14 43
235 -14 43
236 -14 43
237 -14 43
238 -14 43
239 -14 43
240 -22 32
241 -22 32
242 -22 32
243 -22 32
244 -22 32
245 -23 23
246 -23 23
247 -23 23
248 -23 23
249 -23 23
250 -23 23
251 -11 -45
252 -11 -45
253 -11 -45
254 -11 -45
255 -40 30
256 -40 30
257 -40 30
258 -40 30
259 -40 30
260 -40 30
261 9 40
262 9 40
263 9 40
264 9 40
265 9 40
266 37 20
267 37 20
268 37 20
269 37 20
270 37 20
271 37 20
272 26 37
273 26 37
274 26 37
275 26 37
276 26 37
277 -32 -50
278 -32 -50
279 -32 -50
280 34 13
281 34 13
282 34 13
283 34 13
284 -50 -26
285 -50 -26
286 -50 -26
287 -50 -26
288 -50 -26
289 -50 -26
290 46 26
291 46 26
292 46 26
293 46 26
294 46 26
295 46 26
296 -17 -33
297 -17 -33
298 -17 -33
299 -17 -33
300 35 -2
301 35 -2
302 35 -2
303 35 -2
304 35 -2
305 35 -2
306 35 -2
307 -37 -29
308 -37 -29
309 -37 -29
310 -40 26
311 -40 26
312 -40 26
313 -40 26
314 -14 -18
315 -14 -18
316 -14 -18
317 -14 -18
318 -14 -18
319 -14 -18
320 -38 -26
321 -38 -26
322 -38 -26
323 -38 -26
324 -38 -26
325 -38 -26
326 -38 -26
327 9 6
328 9 6
329 44 18
330 44 18
331 44 18
332 44 -29
333 44 -29
334 44 -29
335 44 -29
336 42 -19
337 42 -19
338 42 -19
339 42 -19
340 42 -19
341 42 -19
342 42 -19
343 42 -19
344 -24 24
345 -24 24
346 -24 24
347 -24 24
348 -24 24
349 -24 24
350 -24 24
351 38 0
352 38 0
353 38 0
354 38 0
355 -24 -49
356 -24 -49
357 -24 -49
358 -24 -49
359 -24 -49
360 25 -50
361 25 -50
362 25 -50
363 25 -50
364 25 -50
365 25 -50
366 -1 41
367 -1 41
368 -1 41
369 -1 41
370 -34 -39
371 -34 -39
372 -34 -39
373 -34 -39
374 -34 -39
375 -34 -39
376 -25 -21
377 -25 -21
378 -25 -21
379 -25 -21
380 -25 -21
381 15 11
382 15 11
383 15 11
384 15 11
385 15 11
386 15 11
387 20 -22
388 20 -22
389 20 -22
390 40 24
391 40 24
392 40 24
393 40 24
394 40 24
395 40 24
396 26 -28
397 26 -28
398 26 -28
399 26 -28
400 26 -28
401 26 -28
402 11 7
403 11 7
404 11 7
405 11 7
406 11 7
407 11 7
408 46 -46
409 46 -46
410 46 -46
411 46 -46
412 46 -46
413 46 -46
414 30 -11
415 30 -11
416 30 -11
417 30 -11
418 30 -11
419 30 -11
420 29 49
421 29 49
422 29 49
423 29 49
424 29 49
425 44 13
426 44 13
427 44 13
428 44 13
429 44 13
430 44 13
431 44 13
432 44 13
433 -18 28
434 -18 28
435 3 -48
436 3 -48
437 3 -48
438 3 -48
439 3 -48
440 3 -48
441 -39 -3
442 -39 -3
443 -39 -3
444 -38 -24
445 -38 -24
446 -38 -24
447 -38 -24
448 -38 -24
449 -38 -24
450 -38 -24
451 -27 -14
452 -27 -14
453 -27 -14
454 -27 -14
455 -27 -14
456 -27 -14
457 -2 -37
458 -2 -37
459 -2 -37
460 -28 -46
461 -28 -46
462 -28 -46
463 -28 -46
464 -28 -46
465 5 -8
466 5 -8
467 5 -8
468 5 -8
469 1 37
470 1 37
471 1 37
472 1 37
473 1 37
474 1 37
475 48 29
476 48 29
477 48 29
478 48 29
479 48 29
480 48 29
481 48 29
482 -46 -39
483 -46 -39
484 -46 -39
485 -46 -39
486 45 -35
487 45 -35
488 45 -35
489 45 -35
490 45 -35
491 45 -35
492 45 -35
493 -45 45
494 -45 45
495 -45 45
496 -45 45
497 -45 45
498 -19 30
499 -19 30
500 -19 30
501 -19 30
502 -36 5
503 -36 5
504 -39 -5
505 -39 -5
506 -39 -5
507 -39 -5
508 -39 -5
509 -39 -5
510 -10 6
511 -10 6
512 -6 -20
513 -32 -6
514 -32 -6
515 -32 -6
516 -32 -6
517 -32 -6
518 -4 -44
519 -4 -44
520 -4 -44
521 40 33
522 40 33
523 40 33
524 40 33
525 40 33
526 40 33
527 -2 -24
528 -2 -24
529 -2 -24
530 -2 -24
531 -2 -24
532 -2 -24
533 -18 37
534 -18 37
535 -18 37
536 -18 37
537 -18 37
538 -18 37
539 -18 37
540 43 11
541 43 11
542 -9 -31
543 -9 -31
544 -9 -31
545 -9 -31
546 -9 -31
547 23 -6
548 23 -6
549 23 -6
550 -27 43
551 -27 43
552 -27 43
553 -18 -29
554 -18 -29
555 -18 -29
556 -18 -29
557 -18 -29
558 -18 -29
559 48 45
560 48 45
561 48 45
562 48 45
563 -50 -30
564 -50 -30
565 -50 -30
566 -50 -30
567 -50 -30
568 -50 -30
569 -16 -18
570 -16 -18
571 -16 -18
572 -16 -18
573 -16 -18
574 -16 -18
575 -43 40
576 -43 40
577 -43 40
578 -43 40
579 -43 40
580 -43 40
581 29 -32
582 29 -32
583 29 -32
584 29 -32
585 1 25
586 1 25
587 1 25
588 -19 35
589 -19 35
590 -19 35
591 -19 35
592 -19 35
593 -19 35
594 40 5
595 40 5
596 40 5
597 40 5
598 1 -10
599 1 -10
600 1 -10
601 16 -25
602 16 -25
603 16 -25
604 16 -25
605 29 19
606 29 19
607 29 19
608 29 19
609 -5 -6
610 -5 -6
611 -5 -6
612 -5 -6
613 20 5
614 20 5
615 20 5
616 30 15
617 30 15
618 30 15
619 30 15
620 31 -7
621 31 -7
622 31 -7
623 31 -7
624 -23 -31
625 -23 -31
626 -23 -31
627 -23 -31
628 -20 30
629 -20 30
630 -20 30
631 13 -50
632 13 -50
633 13 -50
634 13 -50
635 13 -50
636 13 -50
637 -46 24
638 -46 24
639 -46 24
640 -46 24
641 12 18
642 12 18
643 12 18
644 12 18
645 12 18
646 47 -40
647 5 -13
648 5 -13
649 5 -13
650 5 -13
651 5 -13
652 -42 34
653 -42 34
654 -42 34
655 -42 34
656 -42 34
657 -42 34
658 -19 -6
659 -19 -6
660 -19 -6
661 -19 -6
662 -19 -6
663 -19 -6
664 16 -15
665 16 -15
666 16 -15
667 16 -15
668 15 13
669 15 13
670 -34 -49
671 -34 -49
672 -34 -49
673 -34 -49
674 -34 -49
675 -34 -49
676 -34 -49
677 -15 5
678 -15 5
679 -15 5
680 5 -18
681 5 -18
682 38 7
683 38 7
684 38 7
685 13 -16
686 13 -16
687 13 -16
688 13 -16
689 13 -16
690 13 -16
691 13 -16
692 13 -16
693 40 -20
694 40 -20
695 40 -20
696 40 -20
697 40 -20
698 40 -20
699 40 -20
700 -32 20
701 -32 20
702 -32 20
703 -32 20
704 -20 40
705 -20 40
706 -20 40
707 -20 40
708 -20 40
DEMAND_SECTION
1 0
2 40
3 40
4 10
5 2
6 40
7 20
8 10
9 2
10 1
11 40
12 10
13 40
14 10
15 2
16 2
17 2
18 2
19 1
20 40
21 20
22 2
23 2
24 2
25 20
26 10
27 2
28 1
29 40
30 1
31 40
32 20
33 10
34 2
35 1
36 40
37 20
38 2
39 1
40 40
41 10
42 2
43 2
44 2
45 1
46 20
47 2
48 2
49 2
50 2
51 40
52 40
53 40
54 40
55 2
56 2
57 2
58 1
59 20
60 2
61 2
62 1
63 40
64 20
65 2
66 40
67 40
68 10
69 2
70 40
71 20
72 10
73 1
74 40
75 40
76 10
77 2
78 2
79 2
80 20
81 10
82 2
83 2
84 2
85 2
86 40
87 40
88 2
89 2
90 1
91 40
92 20
93 10
94 2
95 2
96 1
97 40
98 2
99 40
100 40
101 10
102 2
103 2
104 2
105 2
106 1
107 20
108 2
109 2
110 1
111 40
112 40
113 10
114 1
115 20
116 10
117 2
118 2
119 2
120 1
121 40
122 20
123 10
124 2
125 2
126 2
127 2
128 20
129 10
130 2
131 2
132 20
133 2
134 2
135 2
136 2
137 1
138 40
139 40
140 10
141 40
142 2
143 2
144 1
145 40
146 20
147 2
148 2
149 2
150 40
151 2
152 40
153 40
154 2
155 40
156 40
157 10
158 2
159 2
160 2
161 2
162 40
163 10
164 1
165 40
166 40
167 10
168 2
169 2
170 2
171 2
172 1
173 40
174 40
175 10
176 2
177 1
178 40
179 20
180 10
181 2
182 2
183 2
184 1
185 20
186 10
187 2
188 2
189 40
190 40
191 20
192 40
193 2
194 2
195 2
196 1
197 40
198 10
199 1
200 40
201 40
202 1
203 40
204 20
205 10
206 2
207 2
208 1
209 40
210 20
211 10
212 1
213 40
214 40
215 2
216 2
217 2
218 1
219 20
220 10
221 2
222 2
223 2
224 1
225 40
226 40
227 2
228 2
229 2
230 2
231 1
232 40
233 40
234 20
235 2
236 2
237 2
238 2
239 1
240 20
241 10
242 2
243 2
244 2
245 40
246 20
247 10
248 2
249 2
250 2
251 40
252 20
253 10
254 2
255 40
256 10
257 2
258 2
259 2
260 2
261 40
262 20
263 2
264 2
265 2
266 40
267 40
268 10
269 2
270 2
271 1
272 20
273 10
274 2
275 2
276 1
277 40
278 40
279 10
280 20
281 2
282 2
283 2
284 40
285 40
286 2
287 2
288 2
289 1
290 40
291 20
292 2
293 2
294 2
295 2
296 40
297 10
298 2
299 1
300 40
301 10
302 2
303 2
304 2
305 2
306 1
307 40
308 20
309 10
310 40
311 20
312 10
313 1
314 40
315 20
316 2
317 2
318 2
319 2
320 40
321 40
322 2
323 2
324 2
325 2
326 1
327 40
328 40
329 40
330 20
331 1
332 40
333 2
334 2
335 2
336 40
337 40
338 10
339 2
340 2
341 2
342 2
343 1
344 40
345 10
346 2
347 2
348 2
349 2
350 1
351 40
352 20
353 10
354 2
355 40
356 40
357 2
358 2
359 1
360 20
361 10
362 2
363 2
364 2
365 2
366 40
367 20
368 2
369 1
370 20
371 2
372 2
373 2
374 2
375 1
376 40
377 20
378 10
379 2
380 2
381 40
382 20
383 10
384 2
385 2
386 1
387 20
388 10
389 1
390 40
391 20
392 2
393 2
394 2
395 2
396 40
397 20
398 2
399 2
400 2
401 2
402 40
403 10
404 2
405 2
406 2
407 1
408 40
409 20
410 10
411 2
412 2
413 1
414 40
415 10
416 2
417 2
418 2
419 2
420 40
421 20
422 2
423 2
424 1
425 40
426 40
427 10
428 2
429 2
430 2
431 2
432 1
433 40
434 2
435 40
436 40
437 2
438 2
439 2
440 2
441 40
442 40
443 10
444 40
445 10
446 2
447 2
448 2
449 2
450 1
451 40
452 20
453 2
454 2
455 2
456 1
457 20
458 10
459 1
460 40
461 20
462 2
463 2
464 1
465 40
466 20
467 10
468 1
469 40
470 40
471 2
472 2
473 2
474 2
475 40
476 20
477 10
478 2
479 2
480 2
481 2
482 40
483 20
484 10
485 1
486 40
487 20
488 10
489 2
490 2
491 2
492 1
493 40
494 40
495 10
496 2
497 2
498 40
499 40
500 2
501 1
502 20
503 10
504 40
505 40
506 2
507 2
508 2
509 1
510 40
511 40
512 40
513 40
514 10
515 2
516 2
517 2
518 40
519 20
520 10
521 40
522 10
523 2
524 2
525 2
526 1
527 40
528 40
529 10
530 2
531 2
532 2
533 40
534 40
535 2
536 2
537 2
538 2
539 1
540 40
541 1
542 20
543 10
544 2
545 2
546 1
547 40
548 40
549 20
550 20
551 10
552 2
553 40
554 40
555 2
556 2
557 2
558 2
559 40
560 20
561 2
562 2
563 40
564 10
565 2
566 2
567 2
568 1
569 20
570 10
571 2
572 2
573 2
574 1
575 40
576 20
577 2
578 2
579 2
580 1
581 40
582 40
583 2
584 2
585 40
586 10
587 2
588 20
589 2
590 2
591 2
592 2
593 1
594 40
595 40
596 2
597 2
598 20
599 10
600 2
601 40
602 20
603 2
604 1
605 40
606 20
607 10
608 2
609 40
610 20
611 10
612 1
613 40
614 20
615 2
616 40
617 40
618 10
619 1
620 40
621 20
622 10
623 1
624 40
625 20
626 10
627 2
628 40
629 40
630 20
631 40
632 20
633 10
634 2
635 2
636 2
637 40
638 40
639 10
640 1
641 40
642 2
643 2
644 2
645 1
646 40
647 40
648 20
649 2
650 2
651 1
652 20
653 2
654 2
655 2
656 2
657 1
658 40
659 40
660 10
661 2
662 2
663 1
664 40
665 20
666 10
667 1
668 40
669 20
670 40
671 40
672 10
673 2
674 2
675 2
676 2
677 40
678 2
679 2
680 40
681 10
682 40
683 20
684 1
685 40
686 20
687 10
688 2
689 2
690 2
691 2
692 1
693 40
694 20
695 2
696 2
697 2
698 2
699 1
700 40
701 40
702 2
703 2
704 40
705 2
706 2
707 2
708 1
DEPOT_SECTION
1
-1
EOF