SDVRP instances/custom_instances/p04_15_split0.sol
707 -2 4 3 1 92 90 91 93 95 94 263 261 -10 207 203 202 206 205 204 154 155 159 157 -11 585 62 63 64 188 189 190 -24 25 26 27 630 631 632 633 635 634 434 438 437 439 435 436 -35 38 36 37 217 214 216 212 215 213 668 48 49 47 46 45 -42 41 412 410 407 411 409 408 645 486 489 490 487 485 491 488 -61 60 58 59 276 277 278 7 6 8 5 9 626 625 -72 71 70 341 342 337 336 335 340 338 339 697 693 698 696 694 695 692 -74 75 77 78 76 73 476 475 479 477 480 478 474 290 -88 372 370 373 371 374 369 674 671 673 675 669 670 672 483 481 484 482 -89 87 86 85 308 306 307 321 325 320 322 379 -96 97 360 362 361 364 359 363 115 117 118 116 114 119 40 44 43 39 397 399 398 400 396 -103 105 102 101 100 104 98 109 106 107 108 422 420 423 421 419 142 140 143 141 -111 110 676 509 510 -112 113 441 440 442 506 505 508 507 503 504 516 515 -120 664 666 665 663 685 690 689 684 686 688 691 687 -122 125 126 124 123 121 352 353 351 301 299 302 304 300 303 305 620 619 622 621 -133 132 131 134 136 135 32 34 33 31 30 496 492 494 493 495 -137 175 176 172 173 174 612 613 614 -139 138 616 618 615 617 604 606 607 -144 145 148 146 147 53 54 55 56 57 52 641 643 640 642 644 -151 153 152 -156 160 158 433 432 500 497 629 628 627 -165 168 167 166 171 170 169 164 558 560 561 559 221 218 222 220 223 219 -185 186 184 464 465 466 467 647 649 648 650 646 597 599 598 -187 386 387 388 180 182 177 178 181 179 183 28 29 334 332 333 331 -197 198 196 163 162 161 502 501 512 513 514 659 660 662 -209 211 208 405 402 406 401 403 404 326 327 -210 270 268 265 266 269 267 394 392 391 393 390 389 605 -231 297 298 65 67 66 68 623 624 -238 235 233 234 232 236 237 130 128 129 127 551 549 550 704 706 705 703 707 -247 249 246 347 348 349 344 345 310 312 309 311 637 639 636 638 677 678 -248 245 244 346 343 701 702 700 699 -258 256 254 257 259 255 651 654 653 656 652 655 83 81 80 79 82 84 578 576 579 574 575 577 -264 260 262 50 51 99 271 273 274 272 275 -280 282 281 279 330 294 292 291 289 293 23 21 20 22 19 522 525 524 521 520 523 -283 287 288 286 285 284 566 150 567 564 149 562 565 563 448 444 446 -296 295 356 358 357 355 354 463 459 460 461 462 -316 313 314 318 315 317 572 570 568 569 571 573 611 608 609 610 -329 328 428 425 430 431 429 424 427 426 540 539 -350 594 593 596 595 681 683 682 -366 367 368 365 468 471 472 470 469 473 586 584 -376 378 230 226 228 225 224 229 227 324 319 323 445 449 447 443 -377 375 450 452 454 453 455 451 657 661 658 -383 385 381 382 380 384 200 199 201 667 -395 580 583 581 582 600 601 602 603 -416 418 415 417 413 414 69 546 548 547 -457 456 458 519 517 518 251 252 253 250 544 541 543 -499 498 240 242 241 239 243 590 592 589 588 591 587 532 534 533 536 535 538 537 -511 12 14 18 17 15 16 13 545 542 555 552 553 557 554 556 -530 531 526 528 527 529 194 192 195 193 191 680 679 0 





OBJ=
4467.731
BEST_KNOWN=
0.000